c File: data_files/evolved_graphs/g3671.col
c
c Auto generated graph
c
p edge 100 2143
e 1 3
e 1 10
e 1 17
e 1 25
e 1 37
e 1 52
e 1 53
e 1 54
e 1 59
e 1 60
e 1 61
e 1 62
e 1 64
e 1 65
e 1 67
e 1 70
e 1 71
e 1 72
e 1 73
e 1 74
e 1 75
e 1 76
e 1 77
e 1 79
e 1 82
e 1 83
e 1 84
e 1 86
e 1 87
e 1 89
e 1 90
e 1 91
e 1 94
e 1 97
e 1 98
e 2 6
e 2 7
e 2 8
e 2 9
e 2 10
e 2 11
e 2 13
e 2 19
e 2 31
e 2 32
e 2 33
e 2 40
e 2 45
e 2 46
e 2 49
e 2 57
e 2 68
e 2 69
e 2 70
e 2 71
e 2 73
e 2 77
e 2 80
e 2 82
e 2 85
e 2 87
e 2 88
e 2 89
e 2 90
e 2 92
e 2 96
e 2 100
e 3 5
e 3 7
e 3 15
e 3 19
e 3 20
e 3 27
e 3 45
e 3 53
e 3 54
e 3 57
e 3 59
e 3 60
e 3 62
e 3 64
e 3 66
e 3 69
e 3 71
e 3 72
e 3 74
e 3 75
e 3 76
e 3 77
e 3 81
e 3 84
e 3 85
e 3 86
e 3 88
e 3 90
e 3 91
e 3 92
e 3 94
e 3 97
e 3 98
e 3 99
e 4 7
e 4 9
e 4 10
e 4 13
e 4 20
e 4 21
e 4 42
e 4 50
e 4 53
e 4 55
e 4 57
e 4 58
e 4 59
e 4 61
e 4 64
e 4 65
e 4 67
e 4 71
e 4 72
e 4 74
e 4 75
e 4 77
e 4 79
e 4 80
e 4 81
e 4 82
e 4 84
e 4 85
e 4 87
e 4 88
e 4 90
e 4 91
e 4 92
e 4 93
e 4 94
e 4 95
e 4 99
e 5 8
e 5 9
e 5 14
e 5 18
e 5 22
e 5 23
e 5 33
e 5 39
e 5 44
e 5 54
e 5 55
e 5 57
e 5 58
e 5 59
e 5 60
e 5 61
e 5 62
e 5 65
e 5 67
e 5 68
e 5 69
e 5 73
e 5 76
e 5 78
e 5 79
e 5 80
e 5 81
e 5 82
e 5 83
e 5 84
e 5 87
e 5 88
e 5 90
e 5 93
e 5 98
e 6 7
e 6 8
e 6 13
e 6 15
e 6 27
e 6 28
e 6 35
e 6 43
e 6 49
e 6 51
e 6 55
e 6 59
e 6 60
e 6 61
e 6 62
e 6 63
e 6 64
e 6 65
e 6 67
e 6 68
e 6 71
e 6 75
e 6 77
e 6 80
e 6 81
e 6 82
e 6 83
e 6 88
e 6 89
e 6 90
e 6 91
e 6 93
e 6 97
e 7 11
e 7 13
e 7 15
e 7 20
e 7 26
e 7 33
e 7 38
e 7 39
e 7 41
e 7 44
e 7 46
e 7 47
e 7 58
e 7 59
e 7 60
e 7 61
e 7 63
e 7 64
e 7 65
e 7 67
e 7 69
e 7 71
e 7 72
e 7 73
e 7 74
e 7 76
e 7 78
e 7 79
e 7 81
e 7 82
e 7 83
e 7 84
e 7 85
e 7 86
e 7 89
e 7 90
e 7 91
e 7 92
e 8 10
e 8 13
e 8 15
e 8 26
e 8 36
e 8 39
e 8 40
e 8 41
e 8 42
e 8 44
e 8 56
e 8 58
e 8 59
e 8 60
e 8 61
e 8 62
e 8 64
e 8 66
e 8 67
e 8 68
e 8 69
e 8 72
e 8 73
e 8 76
e 8 77
e 8 80
e 8 81
e 8 82
e 8 84
e 8 86
e 8 90
e 8 91
e 8 93
e 8 94
e 9 10
e 9 11
e 9 13
e 9 18
e 9 23
e 9 30
e 9 32
e 9 33
e 9 48
e 9 53
e 9 56
e 9 57
e 9 60
e 9 61
e 9 62
e 9 65
e 9 66
e 9 68
e 9 70
e 9 71
e 9 72
e 9 74
e 9 81
e 9 82
e 9 85
e 9 86
e 9 87
e 9 93
e 10 12
e 10 16
e 10 18
e 10 20
e 10 22
e 10 23
e 10 24
e 10 30
e 10 40
e 10 44
e 10 53
e 10 57
e 10 59
e 10 60
e 10 61
e 10 65
e 10 66
e 10 67
e 10 68
e 10 71
e 10 77
e 10 78
e 10 79
e 10 80
e 10 84
e 10 87
e 10 88
e 10 91
e 10 92
e 10 94
e 10 95
e 10 98
e 11 15
e 11 21
e 11 28
e 11 34
e 11 41
e 11 45
e 11 46
e 11 59
e 11 63
e 11 65
e 11 66
e 11 68
e 11 70
e 11 71
e 11 72
e 11 73
e 11 74
e 11 75
e 11 76
e 11 78
e 11 81
e 11 85
e 11 90
e 11 93
e 11 94
e 11 96
e 12 23
e 12 24
e 12 33
e 12 37
e 12 38
e 12 41
e 12 51
e 12 53
e 12 55
e 12 57
e 12 58
e 12 59
e 12 60
e 12 61
e 12 62
e 12 63
e 12 64
e 12 66
e 12 68
e 12 70
e 12 71
e 12 72
e 12 74
e 12 75
e 12 76
e 12 77
e 12 79
e 12 81
e 12 84
e 12 86
e 12 87
e 12 89
e 12 90
e 12 91
e 12 94
e 12 98
e 12 99
e 13 17
e 13 22
e 13 28
e 13 41
e 13 43
e 13 50
e 13 51
e 13 57
e 13 59
e 13 60
e 13 62
e 13 63
e 13 64
e 13 65
e 13 66
e 13 68
e 13 69
e 13 71
e 13 73
e 13 74
e 13 75
e 13 76
e 13 77
e 13 78
e 13 80
e 13 82
e 13 83
e 13 84
e 13 86
e 13 87
e 13 88
e 13 89
e 13 91
e 13 94
e 13 98
e 14 15
e 14 18
e 14 20
e 14 22
e 14 23
e 14 28
e 14 31
e 14 33
e 14 34
e 14 38
e 14 39
e 14 41
e 14 42
e 14 47
e 14 50
e 14 52
e 14 53
e 14 54
e 14 55
e 14 56
e 14 57
e 14 59
e 14 60
e 14 61
e 14 64
e 14 65
e 14 67
e 14 68
e 14 70
e 14 73
e 14 77
e 14 78
e 14 79
e 14 81
e 14 82
e 14 85
e 14 86
e 14 87
e 14 88
e 14 93
e 14 95
e 14 100
e 15 16
e 15 20
e 15 21
e 15 22
e 15 28
e 15 32
e 15 34
e 15 35
e 15 37
e 15 38
e 15 42
e 15 47
e 15 48
e 15 50
e 15 55
e 15 57
e 15 59
e 15 61
e 15 63
e 15 65
e 15 67
e 15 69
e 15 70
e 15 71
e 15 72
e 15 73
e 15 76
e 15 80
e 15 81
e 15 83
e 15 85
e 15 87
e 15 88
e 15 90
e 15 91
e 15 92
e 15 94
e 15 96
e 16 20
e 16 22
e 16 24
e 16 25
e 16 30
e 16 31
e 16 36
e 16 37
e 16 38
e 16 40
e 16 41
e 16 43
e 16 45
e 16 47
e 16 48
e 16 51
e 16 52
e 16 53
e 16 54
e 16 56
e 16 57
e 16 58
e 16 60
e 16 64
e 16 65
e 16 67
e 16 70
e 16 71
e 16 72
e 16 73
e 16 77
e 16 79
e 16 81
e 16 82
e 16 84
e 16 86
e 16 89
e 16 90
e 16 91
e 17 18
e 17 24
e 17 25
e 17 28
e 17 29
e 17 30
e 17 35
e 17 38
e 17 40
e 17 41
e 17 42
e 17 43
e 17 44
e 17 47
e 17 49
e 17 50
e 17 52
e 17 59
e 17 62
e 17 64
e 17 69
e 17 72
e 17 73
e 17 74
e 17 76
e 17 77
e 17 79
e 17 80
e 17 84
e 17 85
e 17 86
e 17 88
e 17 92
e 17 93
e 17 94
e 17 97
e 18 19
e 18 21
e 18 22
e 18 23
e 18 28
e 18 29
e 18 30
e 18 31
e 18 35
e 18 37
e 18 39
e 18 40
e 18 41
e 18 44
e 18 46
e 18 48
e 18 49
e 18 50
e 18 51
e 18 55
e 18 56
e 18 59
e 18 61
e 18 62
e 18 64
e 18 65
e 18 66
e 18 67
e 18 68
e 18 69
e 18 70
e 18 71
e 18 72
e 18 74
e 18 76
e 18 77
e 18 78
e 18 81
e 18 82
e 18 84
e 18 86
e 18 88
e 18 90
e 18 91
e 18 93
e 19 20
e 19 22
e 19 25
e 19 28
e 19 29
e 19 30
e 19 32
e 19 33
e 19 36
e 19 39
e 19 41
e 19 44
e 19 45
e 19 49
e 19 51
e 19 52
e 19 54
e 19 60
e 19 62
e 19 64
e 19 66
e 19 70
e 19 71
e 19 72
e 19 73
e 19 74
e 19 76
e 19 77
e 19 78
e 19 80
e 19 81
e 19 82
e 19 83
e 19 86
e 19 88
e 19 89
e 19 92
e 19 93
e 19 94
e 19 97
e 19 100
e 20 30
e 20 33
e 20 35
e 20 37
e 20 38
e 20 39
e 20 44
e 20 46
e 20 47
e 20 48
e 20 54
e 20 55
e 20 56
e 20 57
e 20 58
e 20 61
e 20 62
e 20 63
e 20 64
e 20 67
e 20 68
e 20 70
e 20 72
e 20 74
e 20 76
e 20 78
e 20 80
e 20 82
e 20 83
e 20 85
e 20 86
e 20 88
e 20 89
e 20 92
e 20 93
e 20 98
e 20 99
e 21 25
e 21 30
e 21 31
e 21 34
e 21 36
e 21 40
e 21 44
e 21 45
e 21 49
e 21 52
e 21 53
e 21 55
e 21 57
e 21 59
e 21 60
e 21 63
e 21 67
e 21 68
e 21 69
e 21 71
e 21 72
e 21 73
e 21 76
e 21 78
e 21 79
e 21 80
e 21 81
e 21 83
e 21 84
e 21 86
e 21 87
e 21 88
e 21 91
e 21 94
e 21 99
e 22 23
e 22 24
e 22 25
e 22 27
e 22 28
e 22 29
e 22 30
e 22 31
e 22 34
e 22 36
e 22 37
e 22 41
e 22 45
e 22 46
e 22 47
e 22 48
e 22 52
e 22 53
e 22 56
e 22 57
e 22 58
e 22 60
e 22 61
e 22 63
e 22 64
e 22 66
e 22 67
e 22 69
e 22 70
e 22 72
e 22 73
e 22 75
e 22 76
e 22 78
e 22 79
e 22 83
e 22 84
e 22 86
e 22 87
e 22 90
e 22 91
e 22 92
e 22 94
e 22 95
e 23 28
e 23 32
e 23 33
e 23 37
e 23 38
e 23 39
e 23 42
e 23 44
e 23 45
e 23 46
e 23 48
e 23 49
e 23 51
e 23 52
e 23 56
e 23 58
e 23 59
e 23 60
e 23 61
e 23 62
e 23 63
e 23 67
e 23 70
e 23 72
e 23 73
e 23 74
e 23 75
e 23 78
e 23 81
e 23 82
e 23 84
e 23 85
e 23 90
e 23 91
e 23 92
e 23 94
e 24 25
e 24 29
e 24 31
e 24 34
e 24 36
e 24 37
e 24 38
e 24 41
e 24 42
e 24 45
e 24 47
e 24 52
e 24 58
e 24 61
e 24 63
e 24 64
e 24 65
e 24 66
e 24 69
e 24 70
e 24 71
e 24 72
e 24 74
e 24 75
e 24 76
e 24 77
e 24 79
e 24 80
e 24 82
e 24 85
e 24 86
e 24 87
e 24 88
e 24 89
e 24 90
e 24 91
e 24 92
e 24 93
e 24 94
e 24 98
e 25 28
e 25 31
e 25 33
e 25 36
e 25 39
e 25 40
e 25 41
e 25 44
e 25 45
e 25 46
e 25 50
e 25 53
e 25 54
e 25 56
e 25 57
e 25 58
e 25 59
e 25 60
e 25 61
e 25 62
e 25 63
e 25 65
e 25 67
e 25 68
e 25 71
e 25 73
e 25 74
e 25 75
e 25 79
e 25 82
e 25 83
e 25 84
e 25 85
e 25 87
e 25 89
e 25 91
e 25 92
e 25 98
e 26 27
e 26 28
e 26 36
e 26 39
e 26 41
e 26 43
e 26 48
e 26 49
e 26 53
e 26 57
e 26 60
e 26 61
e 26 63
e 26 66
e 26 69
e 26 70
e 26 72
e 26 73
e 26 74
e 26 75
e 26 76
e 26 77
e 26 81
e 26 82
e 26 83
e 26 84
e 26 88
e 26 91
e 26 94
e 26 96
e 27 29
e 27 30
e 27 31
e 27 34
e 27 35
e 27 36
e 27 52
e 27 56
e 27 57
e 27 58
e 27 59
e 27 64
e 27 65
e 27 66
e 27 67
e 27 70
e 27 75
e 27 76
e 27 78
e 27 79
e 27 80
e 27 81
e 27 82
e 27 83
e 27 84
e 27 85
e 27 86
e 27 88
e 27 89
e 27 90
e 27 91
e 27 93
e 27 94
e 27 100
e 28 30
e 28 31
e 28 34
e 28 36
e 28 37
e 28 41
e 28 42
e 28 43
e 28 44
e 28 46
e 28 47
e 28 50
e 28 56
e 28 58
e 28 59
e 28 60
e 28 61
e 28 63
e 28 64
e 28 67
e 28 71
e 28 72
e 28 73
e 28 74
e 28 75
e 28 76
e 28 77
e 28 79
e 28 80
e 28 83
e 28 84
e 28 85
e 28 86
e 28 87
e 28 88
e 28 89
e 28 90
e 28 92
e 28 93
e 29 33
e 29 36
e 29 44
e 29 46
e 29 47
e 29 48
e 29 49
e 29 55
e 29 57
e 29 59
e 29 60
e 29 62
e 29 66
e 29 69
e 29 72
e 29 74
e 29 76
e 29 78
e 29 79
e 29 80
e 29 82
e 29 83
e 29 85
e 29 86
e 29 88
e 29 89
e 29 91
e 29 92
e 29 94
e 29 99
e 30 32
e 30 34
e 30 35
e 30 36
e 30 38
e 30 40
e 30 44
e 30 46
e 30 51
e 30 53
e 30 54
e 30 55
e 30 58
e 30 59
e 30 62
e 30 64
e 30 65
e 30 67
e 30 68
e 30 69
e 30 70
e 30 71
e 30 72
e 30 74
e 30 75
e 30 76
e 30 78
e 30 80
e 30 81
e 30 83
e 30 84
e 30 85
e 30 86
e 30 87
e 30 88
e 30 92
e 30 93
e 30 94
e 30 96
e 31 32
e 31 33
e 31 34
e 31 38
e 31 39
e 31 41
e 31 42
e 31 43
e 31 44
e 31 48
e 31 50
e 31 51
e 31 53
e 31 57
e 31 58
e 31 59
e 31 60
e 31 61
e 31 63
e 31 65
e 31 68
e 31 73
e 31 75
e 31 77
e 31 78
e 31 79
e 31 81
e 31 82
e 31 83
e 31 84
e 31 85
e 31 89
e 31 90
e 31 91
e 31 93
e 31 94
e 31 96
e 31 97
e 32 33
e 32 34
e 32 35
e 32 48
e 32 49
e 32 51
e 32 54
e 32 55
e 32 57
e 32 58
e 32 59
e 32 60
e 32 61
e 32 65
e 32 66
e 32 67
e 32 70
e 32 73
e 32 77
e 32 78
e 32 79
e 32 81
e 32 82
e 32 83
e 32 84
e 32 86
e 32 87
e 32 90
e 32 93
e 32 95
e 32 99
e 32 100
e 33 35
e 33 36
e 33 37
e 33 39
e 33 42
e 33 44
e 33 45
e 33 48
e 33 52
e 33 53
e 33 56
e 33 57
e 33 58
e 33 60
e 33 61
e 33 62
e 33 63
e 33 64
e 33 70
e 33 73
e 33 74
e 33 75
e 33 77
e 33 79
e 33 80
e 33 82
e 33 85
e 33 86
e 33 87
e 33 89
e 33 90
e 33 91
e 33 92
e 33 94
e 33 99
e 34 35
e 34 38
e 34 42
e 34 43
e 34 44
e 34 47
e 34 50
e 34 51
e 34 53
e 34 55
e 34 57
e 34 58
e 34 59
e 34 60
e 34 63
e 34 64
e 34 66
e 34 67
e 34 68
e 34 69
e 34 70
e 34 72
e 34 76
e 34 77
e 34 79
e 34 80
e 34 82
e 34 83
e 34 85
e 34 88
e 34 92
e 34 93
e 35 38
e 35 40
e 35 41
e 35 42
e 35 43
e 35 45
e 35 47
e 35 51
e 35 57
e 35 58
e 35 59
e 35 60
e 35 61
e 35 62
e 35 63
e 35 65
e 35 68
e 35 70
e 35 71
e 35 72
e 35 74
e 35 75
e 35 76
e 35 77
e 35 78
e 35 79
e 35 80
e 35 81
e 35 82
e 35 85
e 35 86
e 35 87
e 35 89
e 35 91
e 35 92
e 35 93
e 35 94
e 36 39
e 36 42
e 36 43
e 36 47
e 36 48
e 36 49
e 36 51
e 36 55
e 36 56
e 36 58
e 36 60
e 36 61
e 36 62
e 36 64
e 36 65
e 36 66
e 36 68
e 36 69
e 36 71
e 36 73
e 36 77
e 36 79
e 36 80
e 36 82
e 36 86
e 36 88
e 36 89
e 36 91
e 36 92
e 37 41
e 37 43
e 37 44
e 37 54
e 37 55
e 37 56
e 37 57
e 37 59
e 37 60
e 37 61
e 37 62
e 37 64
e 37 65
e 37 66
e 37 69
e 37 70
e 37 71
e 37 75
e 37 81
e 37 83
e 37 85
e 37 87
e 37 88
e 37 91
e 37 92
e 37 93
e 37 94
e 38 42
e 38 44
e 38 47
e 38 49
e 38 53
e 38 55
e 38 56
e 38 57
e 38 59
e 38 61
e 38 62
e 38 66
e 38 69
e 38 74
e 38 75
e 38 76
e 38 79
e 38 80
e 38 81
e 38 82
e 38 83
e 38 85
e 38 86
e 38 87
e 38 94
e 38 95
e 38 98
e 39 41
e 39 42
e 39 44
e 39 47
e 39 51
e 39 52
e 39 53
e 39 54
e 39 55
e 39 56
e 39 57
e 39 58
e 39 60
e 39 62
e 39 63
e 39 65
e 39 67
e 39 68
e 39 69
e 39 73
e 39 74
e 39 76
e 39 78
e 39 80
e 39 81
e 39 82
e 39 84
e 39 85
e 39 88
e 39 90
e 39 91
e 39 94
e 40 42
e 40 45
e 40 48
e 40 49
e 40 52
e 40 53
e 40 54
e 40 55
e 40 58
e 40 59
e 40 60
e 40 61
e 40 63
e 40 65
e 40 66
e 40 67
e 40 69
e 40 70
e 40 71
e 40 72
e 40 73
e 40 75
e 40 76
e 40 77
e 40 78
e 40 79
e 40 80
e 40 81
e 40 82
e 40 84
e 40 85
e 40 89
e 40 90
e 40 91
e 40 94
e 41 43
e 41 44
e 41 47
e 41 48
e 41 50
e 41 54
e 41 55
e 41 57
e 41 58
e 41 61
e 41 64
e 41 66
e 41 67
e 41 69
e 41 70
e 41 71
e 41 74
e 41 75
e 41 79
e 41 80
e 41 82
e 41 83
e 41 85
e 41 90
e 41 91
e 41 93
e 42 43
e 42 44
e 42 46
e 42 49
e 42 52
e 42 53
e 42 58
e 42 60
e 42 63
e 42 64
e 42 65
e 42 66
e 42 67
e 42 68
e 42 69
e 42 72
e 42 74
e 42 77
e 42 78
e 42 80
e 42 81
e 42 83
e 42 84
e 42 85
e 42 86
e 42 87
e 42 89
e 42 90
e 42 94
e 43 44
e 43 45
e 43 47
e 43 53
e 43 54
e 43 55
e 43 56
e 43 57
e 43 62
e 43 63
e 43 64
e 43 65
e 43 66
e 43 67
e 43 71
e 43 72
e 43 73
e 43 74
e 43 76
e 43 77
e 43 78
e 43 79
e 43 80
e 43 81
e 43 82
e 43 84
e 43 85
e 43 86
e 43 87
e 43 92
e 43 94
e 43 98
e 44 47
e 44 50
e 44 51
e 44 53
e 44 56
e 44 58
e 44 60
e 44 61
e 44 62
e 44 63
e 44 64
e 44 65
e 44 68
e 44 73
e 44 75
e 44 76
e 44 77
e 44 80
e 44 81
e 44 82
e 44 83
e 44 84
e 44 85
e 44 86
e 44 87
e 44 88
e 44 89
e 44 90
e 44 91
e 44 92
e 44 94
e 44 97
e 44 99
e 45 46
e 45 48
e 45 51
e 45 52
e 45 56
e 45 59
e 45 60
e 45 61
e 45 63
e 45 68
e 45 69
e 45 70
e 45 73
e 45 74
e 45 75
e 45 76
e 45 78
e 45 82
e 45 83
e 45 85
e 45 86
e 45 88
e 45 90
e 45 91
e 45 92
e 45 99
e 46 47
e 46 49
e 46 55
e 46 58
e 46 59
e 46 62
e 46 65
e 46 66
e 46 67
e 46 68
e 46 69
e 46 70
e 46 72
e 46 74
e 46 75
e 46 76
e 46 78
e 46 80
e 46 84
e 46 85
e 46 86
e 46 87
e 46 89
e 46 91
e 46 92
e 46 93
e 46 94
e 46 95
e 46 96
e 47 50
e 47 51
e 47 52
e 47 53
e 47 57
e 47 58
e 47 60
e 47 63
e 47 65
e 47 66
e 47 69
e 47 70
e 47 71
e 47 73
e 47 75
e 47 76
e 47 77
e 47 78
e 47 80
e 47 81
e 47 85
e 47 86
e 47 87
e 47 89
e 47 91
e 47 94
e 47 96
e 47 98
e 47 99
e 48 51
e 48 52
e 48 53
e 48 56
e 48 59
e 48 62
e 48 63
e 48 64
e 48 66
e 48 67
e 48 68
e 48 69
e 48 70
e 48 71
e 48 72
e 48 74
e 48 76
e 48 77
e 48 78
e 48 79
e 48 80
e 48 82
e 48 84
e 48 87
e 48 89
e 48 90
e 48 91
e 48 93
e 48 94
e 48 95
e 48 96
e 48 97
e 49 53
e 49 57
e 49 59
e 49 60
e 49 65
e 49 67
e 49 68
e 49 71
e 49 73
e 49 75
e 49 76
e 49 79
e 49 81
e 49 82
e 49 83
e 49 84
e 49 85
e 49 87
e 49 88
e 49 89
e 49 90
e 49 93
e 49 94
e 49 95
e 49 98
e 50 54
e 50 55
e 50 56
e 50 57
e 50 63
e 50 65
e 50 66
e 50 67
e 50 69
e 50 70
e 50 71
e 50 73
e 50 74
e 50 75
e 50 76
e 50 77
e 50 80
e 50 82
e 50 83
e 50 85
e 50 86
e 50 87
e 50 88
e 50 89
e 50 90
e 50 92
e 50 93
e 50 94
e 50 96
e 51 56
e 51 57
e 51 60
e 51 64
e 51 65
e 51 66
e 51 67
e 51 68
e 51 69
e 51 70
e 51 71
e 51 72
e 51 73
e 51 75
e 51 76
e 51 77
e 51 78
e 51 79
e 51 81
e 51 82
e 51 83
e 51 84
e 51 85
e 51 86
e 51 87
e 51 88
e 51 90
e 51 92
e 51 93
e 51 94
e 51 97
e 51 99
e 52 55
e 52 56
e 52 58
e 52 59
e 52 62
e 52 65
e 52 66
e 52 67
e 52 69
e 52 73
e 52 74
e 52 75
e 52 77
e 52 78
e 52 79
e 52 80
e 52 81
e 52 82
e 52 83
e 52 84
e 52 85
e 52 86
e 52 87
e 52 89
e 52 90
e 52 91
e 52 93
e 52 94
e 52 99
e 53 55
e 53 56
e 53 57
e 53 58
e 53 59
e 53 60
e 53 61
e 53 63
e 53 64
e 53 65
e 53 66
e 53 67
e 53 68
e 53 72
e 53 75
e 53 77
e 53 78
e 53 79
e 53 80
e 53 81
e 53 83
e 53 84
e 53 85
e 53 86
e 53 87
e 53 88
e 53 90
e 53 92
e 53 94
e 53 99
e 54 56
e 54 57
e 54 58
e 54 61
e 54 62
e 54 63
e 54 65
e 54 66
e 54 68
e 54 70
e 54 72
e 54 74
e 54 75
e 54 77
e 54 78
e 54 80
e 54 83
e 54 84
e 54 87
e 54 90
e 54 91
e 54 93
e 54 100
e 55 57
e 55 59
e 55 61
e 55 63
e 55 65
e 55 66
e 55 67
e 55 69
e 55 70
e 55 71
e 55 73
e 55 74
e 55 75
e 55 76
e 55 77
e 55 81
e 55 82
e 55 83
e 55 85
e 55 86
e 55 87
e 55 88
e 55 90
e 55 91
e 55 93
e 55 99
e 56 58
e 56 59
e 56 60
e 56 61
e 56 62
e 56 63
e 56 64
e 56 68
e 56 70
e 56 72
e 56 75
e 56 76
e 56 77
e 56 81
e 56 82
e 56 84
e 56 85
e 56 87
e 56 88
e 56 90
e 56 91
e 56 92
e 56 94
e 56 98
e 56 100
e 57 62
e 57 63
e 57 66
e 57 76
e 57 79
e 57 81
e 57 84
e 57 87
e 57 91
e 57 95
e 58 62
e 58 63
e 58 66
e 58 67
e 58 72
e 58 73
e 58 80
e 58 90
e 58 91
e 58 92
e 59 64
e 59 67
e 59 68
e 59 71
e 59 72
e 59 74
e 59 75
e 59 78
e 59 81
e 59 83
e 59 87
e 59 90
e 59 92
e 59 94
e 59 97
e 60 61
e 60 64
e 60 65
e 60 68
e 60 69
e 60 70
e 60 72
e 60 73
e 60 76
e 60 78
e 60 84
e 60 87
e 60 88
e 60 91
e 60 94
e 60 96
e 60 97
e 61 63
e 61 66
e 61 67
e 61 71
e 61 72
e 61 74
e 61 81
e 61 82
e 61 85
e 61 86
e 61 87
e 61 88
e 61 89
e 61 90
e 61 91
e 61 92
e 61 95
e 61 99
e 62 65
e 62 66
e 62 72
e 62 75
e 62 76
e 62 79
e 62 80
e 62 82
e 62 83
e 62 85
e 62 87
e 62 89
e 63 64
e 63 67
e 63 68
e 63 73
e 63 74
e 63 75
e 63 76
e 63 79
e 63 81
e 63 85
e 63 87
e 63 88
e 63 89
e 63 90
e 63 100
e 64 68
e 64 71
e 64 73
e 64 75
e 64 77
e 64 78
e 64 80
e 64 81
e 64 83
e 64 89
e 64 90
e 64 93
e 64 98
e 65 68
e 65 72
e 65 73
e 65 77
e 65 82
e 65 88
e 65 90
e 65 91
e 66 69
e 66 72
e 66 76
e 66 77
e 66 78
e 66 81
e 66 82
e 66 86
e 66 88
e 66 98
e 67 68
e 67 69
e 67 77
e 67 78
e 67 79
e 67 80
e 67 83
e 67 89
e 67 91
e 68 72
e 68 75
e 68 80
e 68 81
e 68 85
e 68 89
e 68 90
e 69 73
e 69 74
e 69 75
e 69 76
e 69 79
e 69 80
e 69 89
e 69 94
e 69 99
e 70 71
e 70 72
e 70 73
e 70 78
e 70 80
e 70 81
e 70 89
e 70 91
e 70 92
e 71 72
e 71 76
e 71 79
e 71 80
e 71 81
e 71 85
e 71 89
e 71 91
e 72 74
e 72 75
e 72 78
e 72 79
e 72 85
e 72 86
e 72 92
e 72 98
e 73 74
e 73 75
e 73 80
e 73 81
e 73 82
e 73 83
e 73 86
e 73 87
e 73 89
e 73 90
e 73 91
e 73 93
e 74 76
e 74 78
e 74 84
e 74 85
e 74 88
e 74 91
e 74 96
e 74 97
e 75 78
e 75 80
e 75 81
e 75 82
e 75 83
e 75 84
e 75 86
e 75 87
e 75 88
e 75 91
e 75 92
e 76 77
e 76 79
e 76 80
e 76 82
e 76 84
e 76 89
e 76 94
e 76 98
e 77 78
e 77 80
e 77 84
e 77 87
e 77 96
e 78 79
e 78 80
e 78 81
e 78 85
e 78 90
e 78 91
e 78 93
e 78 94
e 78 98
e 78 100
e 79 83
e 79 87
e 79 89
e 79 90
e 79 91
e 79 92
e 80 82
e 80 83
e 80 84
e 80 86
e 80 89
e 80 92
e 81 84
e 81 90
e 81 91
e 82 87
e 82 88
e 82 90
e 82 91
e 83 86
e 83 92
e 83 97
e 84 85
e 84 86
e 84 87
e 84 89
e 84 90
e 84 91
e 84 92
e 85 86
e 85 97
e 85 100
e 86 87
e 86 90
e 86 95
e 86 99
e 87 88
e 87 93
e 88 89
e 88 90
e 88 98
e 89 91
e 90 91
e 90 97
e 90 98
e 91 99
e 92 96
e 93 96
e 94 96
e 94 98
e 95 97
e 97 99
e 99 100
